Prepare the data
Time to prepare the data:  1.9 s

Preparing the model

Academic license - for non-commercial use only - expires 2023-06-21
Using license file C:\Users\ben\gurobi.lic
Variable set reduced to 42.853 %

Adding variables
173400 variables will be added
Time to add the variables:  0.75 seconds

Adding the constraints
Time to add the constraints:  3.28 seconds

Adding objective function
Time to add the objective function:  42.91 seconds

Solving the model
Warning: variable name "hp_type_0_at_house_type_0_in_year_0_by_distributor_Dr. Kurt Korsing GmbH & Co. KG" has a space
Warning: to let Gurobi read it back, use rlp format
Gurobi Optimizer version 9.1.2 build v9.1.2rc0 (win64)
Thread count: 6 physical cores, 12 logical processors, using up to 12 threads
Optimize a model with 649 rows, 173400 columns and 520200 nonzeros
Model fingerprint: 0xea491988
Variable types: 0 continuous, 173400 integer (0 binary)
Coefficient statistics:
  Matrix range     [1e+00, 1e+00]
  Objective range  [3e+00, 2e+05]
  Bounds range     [0e+00, 0e+00]
  RHS range        [1e+00, 2e+09]
Warning: Model contains large rhs
         Consider reformulating model or setting NumericFocus parameter
         to avoid numerical issues.
Presolve removed 649 rows and 173400 columns
Presolve time: 0.14s
Presolve: All rows and columns removed

Explored 0 nodes (0 simplex iterations) in 0.21 seconds
Thread count was 1 (of 12 available processors)

Solution count 1: 1.52647e+12 

Optimal solution found (tolerance 1.00e-04)
Best objective 1.526467248108e+12, best bound 1.526467248108e+12, gap 0.0000%
Time to solve the model:  2.18 seconds


Statistics for model Heatpumps :
  Linear constraint matrix    : 649 Constrs, 173400 Vars, 520200 NZs
  Variable types              : 0 Continuous, 173400 Integer
  Matrix coefficient range    : [ 1, 1 ]
  Objective coefficient range : [ 3.29609, 227529 ]
  Variable bound range        : [ 0, 0 ]
  RHS coefficient range       : [ 1, 2.07421e+09 ]
